/*********************************************
 * OPL 12.10.0.0 Data
 * Author: m@rcel.xyz
 * Creation Date: 5 Nov 2020 at 19:30:16
 *********************************************/

nTasks = 5;
nCPUs = 3;
rt = [261.27 560.89 310.51 105.80 344.7];
rc = [505.67 503.68 701.78];